qbf_easy_train/easy_2270_SAT.qdimacs
p cnf 20 44
a 2 6 15 0
e 1 3 4 5 7 8 9 10 11 12 13 14 16 17 18 19 20 0
-3 -1 0
-3 -2 0
1 2 3 0
-3 4 -5 0
3 -4 -5 0
-3 -4 5 0
3 4 5 0
6 4 0
6 4 0
-4 -6 0
-6 7 0
6 7 0
-8 5 0
-8 7 0
-5 -7 8 0
-10 -9 0
-10 1 0
9 -1 10 0
13 -11 0
13 -12 0
11 12 -13 0
14 -2 0
14 13 0
2 -13 -14 0
15 -16 -17 0
-15 16 -17 0
15 16 17 0
-15 -16 17 0
18 14 0
18 -17 0
-14 17 -18 0
10 -18 -19 0
-10 18 -19 0
10 18 19 0
-10 -18 19 0
-8 -19 -20 0
8 19 -20 0
-8 19 20 0
8 -19 20 0
11 -8 -10 0
18 -11 -14 -12 -15 0
9 -12 -18 -6 -17 0
-4 -16 -7 -12 -13 17 -9 0
20 0
