sat_easy_train/easy_2270_SAT.dimacs
p cnf 150 508
4 -2 0
4 3 0
2 -3 -4 0
-4 5 -6 0
4 -5 -6 0
-4 -5 6 0
4 5 6 0
-9 -7 0
-9 -8 0
7 8 9 0
-10 4 0
-10 9 0
-4 -9 10 0
11 3 0
11 -3 0
10 -11 -12 0
-10 11 -12 0
10 11 12 0
-10 -11 12 0
-13 6 0
-13 -12 0
-6 12 13 0
-13 -2 -14 0
13 2 -14 0
-13 2 14 0
13 -2 14 0
15 -13 0
15 14 0
13 -14 -15 0
-1 -15 -16 0
1 15 -16 0
-1 15 16 0
1 -15 16 0
17 10 0
17 12 0
-10 -12 -17 0
19 -3 0
19 -18 0
3 18 -19 0
-20 17 0
-20 19 0
-17 -19 20 0
-16 -20 -21 0
16 20 -21 0
-16 20 21 0
16 -20 21 0
3 -22 -23 0
-3 22 -23 0
3 22 23 0
-3 -22 23 0
24 -8 0
24 -23 0
8 23 -24 0
-26 -25 0
-26 5 0
25 -5 26 0
-27 -24 0
-27 -26 0
24 26 27 0
-27 28 -29 0
27 -28 -29 0
-27 -28 29 0
27 28 29 0
30 -7 0
30 28 0
7 -28 -30 0
-22 -30 -31 0
22 30 -31 0
-22 30 31 0
22 -30 31 0
32 33 -34 0
-32 -33 -34 0
32 -33 34 0
-32 33 34 0
35 7 0
35 -34 0
-7 34 -35 0
36 -31 0
36 -35 0
31 35 -36 0
37 36 0
37 -30 0
-36 30 -37 0
29 -37 -38 0
-29 37 -38 0
29 37 38 0
-29 -37 38 0
-25 39 -40 0
25 -39 -40 0
-25 -39 40 0
25 39 40 0
42 -41 0
42 32 0
41 -32 -42 0
43 -7 0
43 -8 0
7 8 -43 0
-44 -42 0
-44 43 0
42 -43 44 0
45 40 0
45 -44 0
-40 44 -45 0
-46 38 0
-46 45 0
-38 -45 46 0
-48 -47 0
-48 25 0
47 -25 48 0
-49 11 0
-49 48 0
-11 -48 49 0
50 -32 0
50 -49 0
32 49 -50 0
51 50 0
51 2 0
-50 -2 -51 0
11 10 -52 0
-11 -10 -52 0
11 -10 52 0
-11 10 52 0
48 -52 -53 0
-48 52 -53 0
48 52 53 0
-48 -52 53 0
54 53 0
54 41 0
-53 -41 -54 0
-55 54 0
-55 54 0
-54 55 0
-56 -51 0
-56 -55 0
51 55 56 0
57 5 0
57 -4 0
-5 4 -57 0
58 -56 0
58 -57 0
56 57 -58 0
-59 -46 0
-59 -58 0
46 58 59 0
-60 21 0
-60 -59 0
-21 59 60 0
62 -61 0
62 -42 0
61 42 -62 0
-63 24 0
-63 47 0
-24 -47 63 0
64 -63 0
64 42 0
63 -42 -64 0
-65 -64 0
-65 64 0
66 62 0
66 -65 0
-62 65 -66 0
15 -66 -67 0
-15 66 -67 0
15 66 67 0
-15 -66 67 0
68 5 0
68 -31 0
-5 31 -68 0
69 67 0
69 -68 0
-67 68 -69 0
-69 10 -70 0
69 -10 -70 0
-69 -10 70 0
69 10 70 0
60 70 -71 0
-60 -70 -71 0
60 -70 71 0
-60 70 71 0
-72 22 0
-72 28 0
-22 -28 72 0
-73 -11 0
-73 -72 0
11 72 73 0
39 73 -74 0
-39 -73 -74 0
39 -73 74 0
-39 73 74 0
-75 43 0
-75 -10 0
-43 10 75 0
75 4 -76 0
-75 -4 -76 0
75 -4 76 0
-75 4 76 0
-76 -1 -77 0
76 1 -77 0
-76 1 77 0
76 -1 77 0
-74 77 -78 0
74 -77 -78 0
-74 -77 78 0
74 77 78 0
-79 33 0
-79 42 0
-33 -42 79 0
-80 -35 0
-80 4 0
35 -4 80 0
-61 80 -81 0
61 -80 -81 0
-61 -80 81 0
61 80 81 0
-82 -81 0
-82 -26 0
81 26 82 0
-83 -42 0
-83 -25 0
42 25 83 0
84 36 0
84 83 0
-36 -83 -84 0
-85 -32 0
-85 84 0
32 -84 85 0
-40 5 -86 0
40 -5 -86 0
-40 -5 86 0
40 5 86 0
-85 86 -87 0
85 -86 -87 0
-85 -86 87 0
85 86 87 0
-88 -82 0
-88 87 0
82 -87 88 0
79 -88 -89 0
-79 88 -89 0
79 88 89 0
-79 -88 89 0
78 89 -90 0
-78 -89 -90 0
78 -89 90 0
-78 89 90 0
-91 -6 0
-91 -32 0
6 32 91 0
92 -91 0
92 -1 0
91 1 -92 0
93 -2 0
93 -92 0
2 92 -93 0
94 -32 0
94 66 0
32 -66 -94 0
-3 61 -95 0
3 -61 -95 0
-3 -61 95 0
3 61 95 0
95 -91 -96 0
-95 91 -96 0
95 91 96 0
-95 -91 96 0
97 -47 0
97 -23 0
47 23 -97 0
98 -96 0
98 97 0
96 -97 -98 0
-99 -94 0
-99 98 0
94 -98 99 0
93 99 -100 0
-93 -99 -100 0
93 -99 100 0
-93 99 100 0
-101 -32 0
-101 10 0
32 -10 101 0
-102 -101 0
-102 -11 0
101 11 102 0
103 63 0
103 30 0
-63 -30 -103 0
-104 -103 0
-104 24 0
103 -24 104 0
105 104 0
105 9 0
-104 -9 -105 0
103 27 -106 0
-103 -27 -106 0
103 -27 106 0
-103 27 106 0
107 106 0
107 -47 0
-106 47 -107 0
-108 -11 0
-108 -43 0
11 43 108 0
-109 72 0
-109 108 0
-72 -108 109 0
-110 -109 0
-110 48 0
109 -48 110 0
-111 110 0
-111 -48 0
-110 48 111 0
-112 -107 0
-112 111 0
107 -111 112 0
113 105 0
113 -112 0
-105 112 -113 0
-7 -64 -114 0
7 64 -114 0
-7 64 114 0
7 -64 114 0
115 113 0
115 114 0
-113 -114 -115 0
116 -49 0
116 -25 0
49 25 -116 0
-115 116 -117 0
115 -116 -117 0
-115 -116 117 0
115 116 117 0
118 -102 0
118 117 0
102 -117 -118 0
7 67 -119 0
-7 -67 -119 0
7 -67 119 0
-7 67 119 0
-120 23 0
-120 33 0
-23 -33 120 0
-121 -5 0
-121 -75 0
5 75 121 0
-122 120 0
-122 121 0
-120 -121 122 0
123 -103 0
123 -12 0
103 12 -123 0
124 91 0
124 -123 0
-91 123 -124 0
-125 122 0
-125 124 0
-122 -124 125 0
126 119 0
126 125 0
-119 -125 -126 0
1 61 -127 0
-1 -61 -127 0
1 -61 127 0
-1 61 127 0
127 -41 -128 0
-127 41 -128 0
127 41 128 0
-127 -41 128 0
126 128 -129 0
-126 -128 -129 0
126 -128 129 0
-126 128 129 0
72 -64 -130 0
-72 64 -130 0
72 64 130 0
-72 -64 130 0
131 14 0
131 -1 0
-14 1 -131 0
-130 131 -132 0
130 -131 -132 0
-130 -131 132 0
130 131 132 0
129 132 -133 0
-129 -132 -133 0
129 -132 133 0
-129 132 133 0
118 133 -134 0
-118 -133 -134 0
118 -133 134 0
-118 133 134 0
-135 -100 0
-135 134 0
100 -134 135 0
-136 90 0
-136 135 0
-90 -135 136 0
137 -49 0
137 14 0
49 -14 -137 0
138 137 0
138 15 0
-137 -15 -138 0
-39 3 -139 0
39 -3 -139 0
-39 -3 139 0
39 3 139 0
140 53 0
140 25 0
-53 -25 -140 0
140 49 -141 0
-140 -49 -141 0
140 -49 141 0
-140 49 141 0
-142 -139 0
-142 141 0
139 -141 142 0
-83 143 0
83 143 0
-68 144 0
68 144 0
-145 2 0
-145 144 0
-2 -144 145 0
-143 145 -146 0
143 -145 -146 0
-143 -145 146 0
143 145 146 0
-147 142 0
-147 -146 0
-142 146 147 0
-148 138 0
-148 -147 0
-138 147 148 0
136 -148 -149 0
-136 148 -149 0
136 148 149 0
-136 -148 149 0
-150 71 0
-150 -149 0
-71 149 150 0
80 -104 96 -101 36 0
90 -140 -88 70 0
-9 -78 -84 100 6 80 0
-22 -99 0
-72 -69 -66 55 147 0
78 -6 -29 51 0
-95 17 0
119 -71 113 -76 90 75 0
-30 74 93 136 37 -134 0
24 96 -86 16 -115 -22 0
-135 40 -97 0
73 124 61 36 -74 108 0
82 -126 58 -17 0
-136 -20 0
-124 -134 0
-11 -75 38 103 99 -28 0
-25 115 68 144 0
-7 27 107 101 0
143 64 -20 -3 0
-16 -47 -84 0
14 -3 42 128 0
-36 33 0
-110 74 -102 0
1 -110 -60 0
139 8 0
-116 -60 -69 0
-104 39 142 -40 0
-36 -106 -85 55 124 0
-100 -88 40 0
-64 14 -42 80 0
122 -120 -10 54 0
116 112 67 91 65 -53 0
-10 -96 -84 0
76 -1 148 0
141 104 26 -47 0
-136 -31 150 105 -106 113 0
-104 -77 0
-81 11 101 -16 0
2 28 141 133 0
-120 -116 0
-103 73 -112 138 4 0
-117 -55 -106 -28 -115 116 0
-65 69 -73 -88 -44 0
-21 -109 -129 70 0
-42 27 10 0
-36 -55 0
-33 84 -1 117 -114 61 0
-63 -17 -10 -101 -53 -88 0
15 42 -107 19 -66 23 0
62 -97 12 -103 0
-141 -32 -135 128 -69 0
78 39 51 -41 -43 0
-121 -97 0
-143 -57 69 0
136 54 78 -45 0
-145 -43 0
14 124 0
-137 -12 -71 -29 15 43 0
-112 -87 0
-87 -96 -69 -38 0
-41 -121 12 -51 0
-42 -53 92 -74 95 63 0
131 -144 -133 -135 -79 -33 0
-28 -62 136 91 -71 0
34 47 -113 11 0
70 26 0
150 0
